p edge 50 654 20
v 2 5 17
v 2 11 29
v 1 12
v 2 16 32
v 4 6 15 25 45
v 3 13 23 36
v 2 18 24
v 4 7 30 37 46
v 2 1 27
v 3 10 21 49
v 2 34 42
v 2 2 40
v 2 20 47
v 1 3
v 2 8 48
v 8 4 9 14 22 38 43 44 50
v 2 26 39
v 3 19 28 31
v 1 33
v 2 35 41
e 1 4
e 1 6
e 1 8
e 1 9
e 1 10
e 1 11
e 1 13
e 1 17
e 1 18
e 1 19
e 1 23
e 1 26
e 1 29
e 1 30
e 1 31
e 1 37
e 1 38
e 1 40
e 1 41
e 1 43
e 1 44
e 1 47
e 1 49
e 2 3
e 2 5
e 2 10
e 2 13
e 2 14
e 2 15
e 2 18
e 2 21
e 2 22
e 2 23
e 2 24
e 2 25
e 2 27
e 2 28
e 2 30
e 2 32
e 2 33
e 2 34
e 2 37
e 2 39
e 2 44
e 3 4
e 3 6
e 3 7
e 3 8
e 3 9
e 3 10
e 3 11
e 3 12
e 3 14
e 3 16
e 3 19
e 3 21
e 3 22
e 3 23
e 3 24
e 3 25
e 3 26
e 3 30
e 3 31
e 3 32
e 3 33
e 3 34
e 3 37
e 3 42
e 3 44
e 3 45
e 3 46
e 3 47
e 3 48
e 4 5
e 4 6
e 4 8
e 4 10
e 4 12
e 4 16
e 4 17
e 4 18
e 4 21
e 4 23
e 4 24
e 4 25
e 4 26
e 4 27
e 4 30
e 4 32
e 4 36
e 4 37
e 4 38
e 4 39
e 4 40
e 4 41
e 4 43
e 4 44
e 4 46
e 5 6
e 5 9
e 5 10
e 5 12
e 5 13
e 5 14
e 5 21
e 5 24
e 5 27
e 5 29
e 5 31
e 5 32
e 5 33
e 5 34
e 5 37
e 5 40
e 5 41
e 5 42
e 5 43
e 5 44
e 5 45
e 5 46
e 5 47
e 5 48
e 5 50
e 6 7
e 6 8
e 6 10
e 6 11
e 6 13
e 6 18
e 6 19
e 6 20
e 6 24
e 6 25
e 6 27
e 6 28
e 6 29
e 6 30
e 6 31
e 6 36
e 6 38
e 6 39
e 6 40
e 6 42
e 6 43
e 6 45
e 6 46
e 6 47
e 6 49
e 6 50
e 7 8
e 7 12
e 7 13
e 7 18
e 7 19
e 7 20
e 7 22
e 7 23
e 7 24
e 7 25
e 7 26
e 7 28
e 7 29
e 7 32
e 7 34
e 7 35
e 7 36
e 7 37
e 7 38
e 7 42
e 7 44
e 7 45
e 7 47
e 7 48
e 7 49
e 7 50
e 8 9
e 8 11
e 8 12
e 8 13
e 8 14
e 8 16
e 8 17
e 8 21
e 8 23
e 8 25
e 8 26
e 8 28
e 8 31
e 8 33
e 8 36
e 8 38
e 8 43
e 8 46
e 8 47
e 8 49
e 8 50
e 9 11
e 9 12
e 9 14
e 9 15
e 9 16
e 9 17
e 9 19
e 9 20
e 9 21
e 9 22
e 9 24
e 9 25
e 9 30
e 9 31
e 9 32
e 9 33
e 9 35
e 9 38
e 9 41
e 9 42
e 9 44
e 9 46
e 9 47
e 9 48
e 10 12
e 10 13
e 10 15
e 10 17
e 10 18
e 10 20
e 10 22
e 10 23
e 10 25
e 10 27
e 10 28
e 10 29
e 10 31
e 10 32
e 10 35
e 10 36
e 10 38
e 10 39
e 10 40
e 10 41
e 10 44
e 10 46
e 10 48
e 10 50
e 11 13
e 11 14
e 11 17
e 11 19
e 11 20
e 11 21
e 11 22
e 11 24
e 11 25
e 11 26
e 11 27
e 11 28
e 11 32
e 11 34
e 11 35
e 11 37
e 11 40
e 11 41
e 11 43
e 11 45
e 11 46
e 11 47
e 11 48
e 11 49
e 11 50
e 12 15
e 12 18
e 12 23
e 12 24
e 12 25
e 12 30
e 12 32
e 12 33
e 12 34
e 12 35
e 12 39
e 12 40
e 12 44
e 12 46
e 13 16
e 13 19
e 13 20
e 13 21
e 13 24
e 13 25
e 13 26
e 13 27
e 13 35
e 13 36
e 13 37
e 13 38
e 13 44
e 13 46
e 13 48
e 14 17
e 14 18
e 14 20
e 14 21
e 14 22
e 14 23
e 14 24
e 14 29
e 14 30
e 14 31
e 14 32
e 14 34
e 14 36
e 14 37
e 14 38
e 14 39
e 14 41
e 14 42
e 14 44
e 14 45
e 14 46
e 14 47
e 15 17
e 15 18
e 15 19
e 15 20
e 15 21
e 15 23
e 15 24
e 15 25
e 15 26
e 15 27
e 15 28
e 15 29
e 15 31
e 15 32
e 15 33
e 15 34
e 15 36
e 15 37
e 15 41
e 15 43
e 15 45
e 15 47
e 15 49
e 15 50
e 16 18
e 16 19
e 16 23
e 16 25
e 16 26
e 16 27
e 16 30
e 16 31
e 16 32
e 16 33
e 16 34
e 16 35
e 16 39
e 16 43
e 16 44
e 16 46
e 16 47
e 16 48
e 16 50
e 17 18
e 17 19
e 17 21
e 17 24
e 17 25
e 17 26
e 17 27
e 17 28
e 17 32
e 17 33
e 17 34
e 17 38
e 17 40
e 17 41
e 17 44
e 17 45
e 17 46
e 17 47
e 18 20
e 18 22
e 18 25
e 18 26
e 18 27
e 18 33
e 18 35
e 18 37
e 18 38
e 18 39
e 18 42
e 18 44
e 18 45
e 18 46
e 18 48
e 18 49
e 18 50
e 19 20
e 19 22
e 19 26
e 19 29
e 19 30
e 19 31
e 19 32
e 19 33
e 19 34
e 19 35
e 19 43
e 19 46
e 19 49
e 19 50
e 20 21
e 20 24
e 20 27
e 20 31
e 20 32
e 20 35
e 20 36
e 20 38
e 20 39
e 20 40
e 20 42
e 20 43
e 20 45
e 21 22
e 21 23
e 21 24
e 21 25
e 21 26
e 21 28
e 21 31
e 21 32
e 21 34
e 21 35
e 21 36
e 21 37
e 21 38
e 21 40
e 21 41
e 21 43
e 21 45
e 21 48
e 22 24
e 22 26
e 22 27
e 22 28
e 22 29
e 22 31
e 22 35
e 22 36
e 22 37
e 22 40
e 22 41
e 22 42
e 22 43
e 22 44
e 22 46
e 22 48
e 23 25
e 23 26
e 23 27
e 23 28
e 23 30
e 23 33
e 23 35
e 23 36
e 23 37
e 23 38
e 23 39
e 23 41
e 23 43
e 23 45
e 23 49
e 23 50
e 24 26
e 24 27
e 24 28
e 24 29
e 24 30
e 24 31
e 24 32
e 24 34
e 24 35
e 24 36
e 24 37
e 24 40
e 24 41
e 24 43
e 24 44
e 24 46
e 24 47
e 24 48
e 25 26
e 25 28
e 25 30
e 25 34
e 25 35
e 25 36
e 25 37
e 25 40
e 25 41
e 25 42
e 25 43
e 25 44
e 25 45
e 25 47
e 26 27
e 26 29
e 26 30
e 26 35
e 26 36
e 26 37
e 26 40
e 26 41
e 26 44
e 27 28
e 27 30
e 27 32
e 27 34
e 27 35
e 27 40
e 27 42
e 27 44
e 27 45
e 27 50
e 28 29
e 28 30
e 28 31
e 28 33
e 28 34
e 28 38
e 28 39
e 28 40
e 28 41
e 28 45
e 28 48
e 28 49
e 28 50
e 29 30
e 29 31
e 29 33
e 29 36
e 29 38
e 29 40
e 29 42
e 29 43
e 29 44
e 29 47
e 29 48
e 30 33
e 30 35
e 30 36
e 30 37
e 30 38
e 30 39
e 30 41
e 30 42
e 30 43
e 30 46
e 31 33
e 31 34
e 31 35
e 31 36
e 31 37
e 31 41
e 31 43
e 31 47
e 31 49
e 31 50
e 32 33
e 32 34
e 32 40
e 32 41
e 32 43
e 32 46
e 32 47
e 32 49
e 33 35
e 33 39
e 33 42
e 33 43
e 33 45
e 34 39
e 34 43
e 34 45
e 34 46
e 34 47
e 34 48
e 34 49
e 34 50
e 35 37
e 35 39
e 35 47
e 35 49
e 35 50
e 36 37
e 36 43
e 36 44
e 36 45
e 36 46
e 36 48
e 36 49
e 37 38
e 37 39
e 37 40
e 37 41
e 37 44
e 37 46
e 37 47
e 37 48
e 37 49
e 37 50
e 38 41
e 38 42
e 38 44
e 38 46
e 38 49
e 39 41
e 39 43
e 39 44
e 39 45
e 39 47
e 40 41
e 40 43
e 40 44
e 40 46
e 40 48
e 40 49
e 41 42
e 41 46
e 41 47
e 41 49
e 41 50
e 42 44
e 42 45
e 42 46
e 42 47
e 42 48
e 42 50
e 43 45
e 43 46
e 43 47
e 43 49
e 44 45
e 44 47
e 44 49
e 44 50
e 45 48
e 46 47
e 46 49
e 46 50
e 47 49
e 48 49
